NAME: random-69-7345
TYPE: TSP
COMMENT: size=69 seed=7345
DIMENSION: 140
EDGE_WEIGHT_TYPE: EUC_2D
NODE_COORD_SECTION
+0 415 903
-0 415 903
+1 139 464
-1 465 968
+2 552 950
-2 848 620
+3 99 799
-3 891 705
+4 752 273
-4 848 110
+5 833 837
-5 683 567
+6 95 995
-6 430 369
+7 935 525
-7 623 64
+8 871 959
-8 768 115
+9 793 320
-9 242 344
+10 957 88
-10 956 69
+11 430 174
-11 227 189
+12 989 530
-12 382 109
+13 598 387
-13 674 416
+14 49 949
-14 184 267
+15 422 635
-15 981 359
+16 183 969
-16 827 858
+17 893 858
-17 791 258
+18 430 468
-18 595 913
+19 318 471
-19 954 726
+20 915 190
-20 953 613
+21 446 194
-21 896 164
+22 968 488
-22 196 332
+23 259 747
-23 813 459
+24 198 805
-24 344 683
+25 783 373
-25 972 737
+26 802 404
-26 294 391
+27 955 213
-27 106 783
+28 794 701
-28 992 762
+29 59 41
-29 857 961
+30 504 813
-30 696 586
+31 816 149
-31 449 836
+32 854 86
-32 432 442
+33 2 352
-33 664 236
+34 285 939
-34 631 975
+35 452 696
-35 262 729
+36 886 256
-36 273 852
+37 978 634
-37 364 637
+38 300 906
-38 62 148
+39 995 599
-39 670 464
+40 895 717
-40 712 326
+41 534 996
-41 496 359
+42 797 819
-42 909 195
+43 216 33
-43 93 649
+44 624 31
-44 391 147
+45 976 531
-45 13 534
+46 673 565
-46 943 953
+47 396 919
-47 413 708
+48 952 87
-48 128 665
+49 901 186
-49 33 561
+50 360 196
-50 460 150
+51 696 300
-51 186 19
+52 732 438
-52 740 329
+53 521 177
-53 942 163
+54 753 782
-54 336 45
+55 546 628
-55 534 454
+56 335 78
-56 642 372
+57 965 241
-57 567 761
+58 665 246
-58 846 103
+59 214 603
-59 192 645
+60 922 812
-60 177 742
+61 981 399
-61 534 444
+62 295 226
-62 592 228
+63 800 691
-63 27 909
+64 271 489
-64 166 309
+65 626 733
-65 87 900
+66 188 207
-66 840 204
+67 300 840
-67 894 652
+68 639 201
-68 879 323
+69 778 101
-69 756 166
PRECEDENCE_SECTION
+0 -0
+1 -1
+2 -2
+3 -3
+4 -4
+5 -5
+6 -6
+7 -7
+8 -8
+9 -9
+10 -10
+11 -11
+12 -12
+13 -13
+14 -14
+15 -15
+16 -16
+17 -17
+18 -18
+19 -19
+20 -20
+21 -21
+22 -22
+23 -23
+24 -24
+25 -25
+26 -26
+27 -27
+28 -28
+29 -29
+30 -30
+31 -31
+32 -32
+33 -33
+34 -34
+35 -35
+36 -36
+37 -37
+38 -38
+39 -39
+40 -40
+41 -41
+42 -42
+43 -43
+44 -44
+45 -45
+46 -46
+47 -47
+48 -48
+49 -49
+50 -50
+51 -51
+52 -52
+53 -53
+54 -54
+55 -55
+56 -56
+57 -57
+58 -58
+59 -59
+60 -60
+61 -61
+62 -62
+63 -63
+64 -64
+65 -65
+66 -66
+67 -67
+68 -68
+69 -69
EOF
